7154
1 1 1 0 0 1 0 0 1 1 0 0 1 1 1 0 0 0 0 0 
5 0 0 0 0 0 0 1 13 1 9 1 1 1 1 2 2 2 2 2 2 12 14 12 12 14 12 12 12 5 5 5 5 5 5 5 5 5 0 0 2 2 8 8 1 14 13 13 0 5 8 13 14 13 13 5 14 0 9 9 2 9 0 13 13 13 8 12 9 9 13 2 13 8 14 14 8 14 9 13 
